p cnf 441 1484
c weights 1.0 1.0 2.718281828459045 0.36787944117144233 2.718281828459045 0.36787944117144233 2.718281828459045 0.36787944117144233 2.718281828459045 0.36787944117144233 2.718281828459045 0.36787944117144233 2.718281828459045 0.36787944117144233 2.718281828459045 0.36787944117144233 2.718281828459045 0.36787944117144233 2.718281828459045 0.36787944117144233 1.0 1.0 2.718281828459045 0.36787944117144233 2.718281828459045 0.36787944117144233 2.718281828459045 0.36787944117144233 2.718281828459045 0.36787944117144233 2.718281828459045 0.36787944117144233 2.718281828459045 0.36787944117144233 2.718281828459045 0.36787944117144233 2.718281828459045 0.36787944117144233 2.718281828459045 0.36787944117144233 2.718281828459045 0.36787944117144233 2.718281828459045 0.36787944117144233 1.0 1.0 2.718281828459045 0.36787944117144233 2.718281828459045 0.36787944117144233 2.718281828459045 0.36787944117144233 2.718281828459045 0.36787944117144233 2.718281828459045 0.36787944117144233 2.718281828459045 0.36787944117144233 2.718281828459045 0.36787944117144233 2.718281828459045 0.36787944117144233 2.718281828459045 0.36787944117144233 2.718281828459045 0.36787944117144233 2.718281828459045 0.36787944117144233 2.718281828459045 0.36787944117144233 1.0 1.0 2.718281828459045 0.36787944117144233 2.718281828459045 0.36787944117144233 2.718281828459045 0.36787944117144233 2.718281828459045 0.36787944117144233 2.718281828459045 0.36787944117144233 2.718281828459045 0.36787944117144233 2.718281828459045 0.36787944117144233 2.718281828459045 0.36787944117144233 2.718281828459045 0.36787944117144233 2.718281828459045 0.36787944117144233 2.718281828459045 0.36787944117144233 2.718281828459045 0.36787944117144233 1.0 1.0 2.718281828459045 0.36787944117144233 2.718281828459045 0.36787944117144233 2.718281828459045 0.36787944117144233 2.718281828459045 0.36787944117144233 2.718281828459045 0.36787944117144233 2.718281828459045 0.36787944117144233 2.718281828459045 0.36787944117144233 2.718281828459045 0.36787944117144233 2.718281828459045 0.36787944117144233 2.718281828459045 0.36787944117144233 1.0 1.0 2.718281828459045 0.36787944117144233 2.718281828459045 0.36787944117144233 2.718281828459045 0.36787944117144233 2.718281828459045 0.36787944117144233 2.718281828459045 0.36787944117144233 2.718281828459045 0.36787944117144233 2.718281828459045 0.36787944117144233 2.718281828459045 0.36787944117144233 2.718281828459045 0.36787944117144233 1.0 1.0 2.718281828459045 0.36787944117144233 2.718281828459045 0.36787944117144233 2.718281828459045 0.36787944117144233 2.718281828459045 0.36787944117144233 2.718281828459045 0.36787944117144233 2.718281828459045 0.36787944117144233 2.718281828459045 0.36787944117144233 2.718281828459045 0.36787944117144233 1.0 1.0 2.718281828459045 0.36787944117144233 2.718281828459045 0.36787944117144233 2.718281828459045 0.36787944117144233 2.718281828459045 0.36787944117144233 2.718281828459045 0.36787944117144233 2.718281828459045 0.36787944117144233 2.718281828459045 0.36787944117144233 2.718281828459045 0.36787944117144233 2.718281828459045 0.36787944117144233 2.718281828459045 0.36787944117144233 2.718281828459045 0.36787944117144233 1.0 1.0 2.718281828459045 0.36787944117144233 2.718281828459045 0.36787944117144233 2.718281828459045 0.36787944117144233 2.718281828459045 0.36787944117144233 2.718281828459045 0.36787944117144233 2.718281828459045 0.36787944117144233 2.718281828459045 0.36787944117144233 2.718281828459045 0.36787944117144233 2.718281828459045 0.36787944117144233 2.718281828459045 0.36787944117144233 2.718281828459045 0.36787944117144233 2.718281828459045 0.36787944117144233 2.718281828459045 0.36787944117144233 2.718281828459045 0.36787944117144233 2.718281828459045 0.36787944117144233 2.718281828459045 0.36787944117144233 1.0 1.0 2.718281828459045 0.36787944117144233 2.718281828459045 0.36787944117144233 2.718281828459045 0.36787944117144233 2.718281828459045 0.36787944117144233 2.718281828459045 0.36787944117144233 2.718281828459045 0.36787944117144233 2.718281828459045 0.36787944117144233 2.718281828459045 0.36787944117144233 1.0 1.0 2.718281828459045 0.36787944117144233 2.718281828459045 0.36787944117144233 2.718281828459045 0.36787944117144233 2.718281828459045 0.36787944117144233 2.718281828459045 0.36787944117144233 2.718281828459045 0.36787944117144233 2.718281828459045 0.36787944117144233 1.0 1.0 2.718281828459045 0.36787944117144233 2.718281828459045 0.36787944117144233 2.718281828459045 0.36787944117144233 2.718281828459045 0.36787944117144233 2.718281828459045 0.36787944117144233 2.718281828459045 0.36787944117144233 2.718281828459045 0.36787944117144233 2.718281828459045 0.36787944117144233 2.718281828459045 0.36787944117144233 1.0 1.0 2.718281828459045 0.36787944117144233 2.718281828459045 0.36787944117144233 2.718281828459045 0.36787944117144233 2.718281828459045 0.36787944117144233 2.718281828459045 0.36787944117144233 2.718281828459045 0.36787944117144233 2.718281828459045 0.36787944117144233 2.718281828459045 0.36787944117144233 1.0 1.0 2.718281828459045 0.36787944117144233 2.718281828459045 0.36787944117144233 2.718281828459045 0.36787944117144233 2.718281828459045 0.36787944117144233 1.0 1.0 2.718281828459045 0.36787944117144233 2.718281828459045 0.36787944117144233 2.718281828459045 0.36787944117144233 2.718281828459045 0.36787944117144233 2.718281828459045 0.36787944117144233 2.718281828459045 0.36787944117144233 2.718281828459045 0.36787944117144233 2.718281828459045 0.36787944117144233 2.718281828459045 0.36787944117144233 2.718281828459045 0.36787944117144233 2.718281828459045 0.36787944117144233 2.718281828459045 0.36787944117144233 2.718281828459045 0.36787944117144233 1.0 1.0 2.718281828459045 0.36787944117144233 2.718281828459045 0.36787944117144233 2.718281828459045 0.36787944117144233 2.718281828459045 0.36787944117144233 2.718281828459045 0.36787944117144233 2.718281828459045 0.36787944117144233 2.718281828459045 0.36787944117144233 1.0 1.0 2.718281828459045 0.36787944117144233 2.718281828459045 0.36787944117144233 2.718281828459045 0.36787944117144233 2.718281828459045 0.36787944117144233 2.718281828459045 0.36787944117144233 2.718281828459045 0.36787944117144233 2.718281828459045 0.36787944117144233 2.718281828459045 0.36787944117144233 2.718281828459045 0.36787944117144233 1.0 1.0 2.718281828459045 0.36787944117144233 2.718281828459045 0.36787944117144233 2.718281828459045 0.36787944117144233 2.718281828459045 0.36787944117144233 2.718281828459045 0.36787944117144233 2.718281828459045 0.36787944117144233 2.718281828459045 0.36787944117144233 2.718281828459045 0.36787944117144233 2.718281828459045 0.36787944117144233 2.718281828459045 0.36787944117144233 2.718281828459045 0.36787944117144233 2.718281828459045 0.36787944117144233 1.0 1.0 2.718281828459045 0.36787944117144233 2.718281828459045 0.36787944117144233 2.718281828459045 0.36787944117144233 2.718281828459045 0.36787944117144233 2.718281828459045 0.36787944117144233 1.0 1.0 2.718281828459045 0.36787944117144233 2.718281828459045 0.36787944117144233 2.718281828459045 0.36787944117144233 2.718281828459045 0.36787944117144233 2.718281828459045 0.36787944117144233 2.718281828459045 0.36787944117144233 2.718281828459045 0.36787944117144233 1.0 1.0 2.718281828459045 0.36787944117144233 2.718281828459045 0.36787944117144233 2.718281828459045 0.36787944117144233 2.718281828459045 0.36787944117144233 2.718281828459045 0.36787944117144233 2.718281828459045 0.36787944117144233 2.718281828459045 0.36787944117144233 2.718281828459045 0.36787944117144233 2.718281828459045 0.36787944117144233 1.0 1.0 2.718281828459045 0.36787944117144233 2.718281828459045 0.36787944117144233 2.718281828459045 0.36787944117144233 2.718281828459045 0.36787944117144233 1.0 1.0 2.718281828459045 0.36787944117144233 2.718281828459045 0.36787944117144233 2.718281828459045 0.36787944117144233 2.718281828459045 0.36787944117144233 2.718281828459045 0.36787944117144233 2.718281828459045 0.36787944117144233 2.718281828459045 0.36787944117144233 1.0 1.0 2.718281828459045 0.36787944117144233 2.718281828459045 0.36787944117144233 2.718281828459045 0.36787944117144233 1.0 1.0 2.718281828459045 0.36787944117144233 2.718281828459045 0.36787944117144233 2.718281828459045 0.36787944117144233 2.718281828459045 0.36787944117144233 2.718281828459045 0.36787944117144233 2.718281828459045 0.36787944117144233 1.0 1.0 2.718281828459045 0.36787944117144233 2.718281828459045 0.36787944117144233 2.718281828459045 0.36787944117144233 2.718281828459045 0.36787944117144233 2.718281828459045 0.36787944117144233 2.718281828459045 0.36787944117144233 1.0 1.0 2.718281828459045 0.36787944117144233 2.718281828459045 0.36787944117144233 2.718281828459045 0.36787944117144233 2.718281828459045 0.36787944117144233 2.718281828459045 0.36787944117144233 2.718281828459045 0.36787944117144233 2.718281828459045 0.36787944117144233 2.718281828459045 0.36787944117144233 2.718281828459045 0.36787944117144233 2.718281828459045 0.36787944117144233 2.718281828459045 0.36787944117144233 1.0 1.0 2.718281828459045 0.36787944117144233 2.718281828459045 0.36787944117144233 2.718281828459045 0.36787944117144233 1.0 1.0 2.718281828459045 0.36787944117144233 2.718281828459045 0.36787944117144233 2.718281828459045 0.36787944117144233 2.718281828459045 0.36787944117144233 2.718281828459045 0.36787944117144233 2.718281828459045 0.36787944117144233 1.0 1.0 2.718281828459045 0.36787944117144233 2.718281828459045 0.36787944117144233 2.718281828459045 0.36787944117144233 1.0 1.0 2.718281828459045 0.36787944117144233 2.718281828459045 0.36787944117144233 2.718281828459045 0.36787944117144233 2.718281828459045 0.36787944117144233 1.0 1.0 2.718281828459045 0.36787944117144233 2.718281828459045 0.36787944117144233 2.718281828459045 0.36787944117144233 2.718281828459045 0.36787944117144233 2.718281828459045 0.36787944117144233 2.718281828459045 0.36787944117144233 2.718281828459045 0.36787944117144233 1.0 1.0 2.718281828459045 0.36787944117144233 2.718281828459045 0.36787944117144233 2.718281828459045 0.36787944117144233 2.718281828459045 0.36787944117144233 2.718281828459045 0.36787944117144233 2.718281828459045 0.36787944117144233 2.718281828459045 0.36787944117144233 1.0 1.0 2.718281828459045 0.36787944117144233 2.718281828459045 0.36787944117144233 2.718281828459045 0.36787944117144233 2.718281828459045 0.36787944117144233 2.718281828459045 0.36787944117144233 1.0 1.0 2.718281828459045 0.36787944117144233 2.718281828459045 0.36787944117144233 2.718281828459045 0.36787944117144233 2.718281828459045 0.36787944117144233 2.718281828459045 0.36787944117144233 2.718281828459045 0.36787944117144233 2.718281828459045 0.36787944117144233 1.0 1.0 2.718281828459045 0.36787944117144233 2.718281828459045 0.36787944117144233 2.718281828459045 0.36787944117144233 1.0 1.0 2.718281828459045 0.36787944117144233 2.718281828459045 0.36787944117144233 2.718281828459045 0.36787944117144233 2.718281828459045 0.36787944117144233 2.718281828459045 0.36787944117144233 2.718281828459045 0.36787944117144233 1.0 1.0 2.718281828459045 0.36787944117144233 2.718281828459045 0.36787944117144233 2.718281828459045 0.36787944117144233 2.718281828459045 0.36787944117144233 2.718281828459045 0.36787944117144233 2.718281828459045 0.36787944117144233 2.718281828459045 0.36787944117144233 2.718281828459045 0.36787944117144233 1.0 1.0 2.718281828459045 0.36787944117144233 2.718281828459045 0.36787944117144233 2.718281828459045 0.36787944117144233 2.718281828459045 0.36787944117144233 1.0 1.0 2.718281828459045 0.36787944117144233 2.718281828459045 0.36787944117144233 2.718281828459045 0.36787944117144233 2.718281828459045 0.36787944117144233 2.718281828459045 0.36787944117144233 1.0 1.0 2.718281828459045 0.36787944117144233 1.0 1.0 2.718281828459045 0.36787944117144233 2.718281828459045 0.36787944117144233 2.718281828459045 0.36787944117144233 2.718281828459045 0.36787944117144233 1.0 1.0 2.718281828459045 0.36787944117144233 2.718281828459045 0.36787944117144233 2.718281828459045 0.36787944117144233 2.718281828459045 0.36787944117144233 2.718281828459045 0.36787944117144233 1.0 1.0 2.718281828459045 0.36787944117144233 2.718281828459045 0.36787944117144233 2.718281828459045 0.36787944117144233 1.0 1.0 2.718281828459045 0.36787944117144233 2.718281828459045 0.36787944117144233 2.718281828459045 0.36787944117144233 2.718281828459045 0.36787944117144233 2.718281828459045 0.36787944117144233 1.0 1.0 2.718281828459045 0.36787944117144233 2.718281828459045 0.36787944117144233 2.718281828459045 0.36787944117144233 2.718281828459045 0.36787944117144233 2.718281828459045 0.36787944117144233 1.0 1.0 2.718281828459045 0.36787944117144233 2.718281828459045 0.36787944117144233 2.718281828459045 0.36787944117144233 2.718281828459045 0.36787944117144233 2.718281828459045 0.36787944117144233 1.0 1.0 2.718281828459045 0.36787944117144233 2.718281828459045 0.36787944117144233 2.718281828459045 0.36787944117144233 2.718281828459045 0.36787944117144233 2.718281828459045 0.36787944117144233 2.718281828459045 0.36787944117144233 1.0 1.0 2.718281828459045 0.36787944117144233 2.718281828459045 0.36787944117144233 2.718281828459045 0.36787944117144233 1.0 1.0 2.718281828459045 0.36787944117144233 2.718281828459045 0.36787944117144233 2.718281828459045 0.36787944117144233 2.718281828459045 0.36787944117144233 2.718281828459045 0.36787944117144233 1.0 1.0 2.718281828459045 0.36787944117144233 1.0 1.0 2.718281828459045 0.36787944117144233 2.718281828459045 0.36787944117144233 2.718281828459045 0.36787944117144233 1.0 1.0 2.718281828459045 0.36787944117144233 2.718281828459045 0.36787944117144233 2.718281828459045 0.36787944117144233 2.718281828459045 0.36787944117144233 2.718281828459045 0.36787944117144233 1.0 1.0 2.718281828459045 0.36787944117144233 1.0 1.0 1.0 1.0 2.718281828459045 0.36787944117144233 1.0 1.0 2.718281828459045 0.36787944117144233 2.718281828459045 0.36787944117144233 2.718281828459045 0.36787944117144233 1.0 1.0 2.718281828459045 0.36787944117144233 2.718281828459045 0.36787944117144233 1.0 1.0 2.718281828459045 0.36787944117144233 2.718281828459045 0.36787944117144233 1.0 1.0 2.718281828459045 0.36787944117144233 2.718281828459045 0.36787944117144233 1.0 1.0 2.718281828459045 0.36787944117144233 2.718281828459045 0.36787944117144233 1.0 1.0 2.718281828459045 0.36787944117144233 2.718281828459045 0.36787944117144233 1.0 1.0 2.718281828459045 0.36787944117144233 1.0 1.0 1.0 1.0 2.718281828459045 0.36787944117144233 1.0 1.0 2.718281828459045 0.36787944117144233 1.0 1.0 1.0 1.0 1.0 1.0 2.718281828459045 0.36787944117144233 1.0 1.0
2 1 11 0
2 -1 -11 0
-2 1 -11 0
-2 -1 11 0
3 1 79 0
3 -1 -79 0
-3 1 -79 0
-3 -1 79 0
4 1 117 0
4 -1 -117 0
-4 1 -117 0
-4 -1 117 0
5 1 200 0
5 -1 -200 0
-5 1 -200 0
-5 -1 200 0
6 1 208 0
6 -1 -208 0
-6 1 -208 0
-6 -1 208 0
7 1 231 0
7 -1 -231 0
-7 1 -231 0
-7 -1 231 0
8 1 289 0
8 -1 -289 0
-8 1 -289 0
-8 -1 289 0
9 1 432 0
9 -1 -432 0
-9 1 -432 0
-9 -1 432 0
10 1 441 0
10 -1 -441 0
-10 1 -441 0
-10 -1 441 0
12 11 60 0
12 -11 -60 0
-12 11 -60 0
-12 -11 60 0
13 11 163 0
13 -11 -163 0
-13 11 -163 0
-13 -11 163 0
14 11 208 0
14 -11 -208 0
-14 11 -208 0
-14 -11 208 0
15 11 331 0
15 -11 -331 0
-15 11 -331 0
-15 -11 331 0
16 11 336 0
16 -11 -336 0
-16 11 -336 0
-16 -11 336 0
17 11 355 0
17 -11 -355 0
-17 11 -355 0
-17 -11 355 0
18 11 365 0
18 -11 -365 0
-18 11 -365 0
-18 -11 365 0
19 11 400 0
19 -11 -400 0
-19 11 -400 0
-19 -11 400 0
20 11 409 0
20 -11 -409 0
-20 11 -409 0
-20 -11 409 0
21 11 418 0
21 -11 -418 0
-21 11 -418 0
-21 -11 418 0
22 11 438 0
22 -11 -438 0
-22 11 -438 0
-22 -11 438 0
24 23 36 0
24 -23 -36 0
-24 23 -36 0
-24 -23 36 0
25 23 49 0
25 -23 -49 0
-25 23 -49 0
-25 -23 49 0
26 23 117 0
26 -23 -117 0
-26 23 -117 0
-26 -23 117 0
27 23 125 0
27 -23 -125 0
-27 23 -125 0
-27 -23 125 0
28 23 200 0
28 -23 -200 0
-28 23 -200 0
-28 -23 200 0
29 23 231 0
29 -23 -231 0
-29 23 -231 0
-29 -23 231 0
30 23 235 0
30 -23 -235 0
-30 23 -235 0
-30 -23 235 0
31 23 265 0
31 -23 -265 0
-31 23 -265 0
-31 -23 265 0
32 23 371 0
32 -23 -371 0
-32 23 -371 0
-32 -23 371 0
33 23 384 0
33 -23 -384 0
-33 23 -384 0
-33 -23 384 0
34 23 406 0
34 -23 -406 0
-34 23 -406 0
-34 -23 406 0
35 23 418 0
35 -23 -418 0
-35 23 -418 0
-35 -23 418 0
37 36 91 0
37 -36 -91 0
-37 36 -91 0
-37 -36 91 0
38 36 108 0
38 -36 -108 0
-38 36 -108 0
-38 -36 108 0
39 36 171 0
39 -36 -171 0
-39 36 -171 0
-39 -36 171 0
40 36 200 0
40 -36 -200 0
-40 36 -200 0
-40 -36 200 0
41 36 289 0
41 -36 -289 0
-41 36 -289 0
-41 -36 289 0
42 36 297 0
42 -36 -297 0
-42 36 -297 0
-42 -36 297 0
43 36 331 0
43 -36 -331 0
-43 36 -331 0
-43 -36 331 0
44 36 359 0
44 -36 -359 0
-44 36 -359 0
-44 -36 359 0
45 36 411 0
45 -36 -411 0
-45 36 -411 0
-45 -36 411 0
46 36 430 0
46 -36 -430 0
-46 36 -430 0
-46 -36 430 0
47 36 432 0
47 -36 -432 0
-47 36 -432 0
-47 -36 432 0
48 36 438 0
48 -36 -438 0
-48 36 -438 0
-48 -36 438 0
50 49 60 0
50 -49 -60 0
-50 49 -60 0
-50 -49 60 0
51 49 108 0
51 -49 -108 0
-51 49 -108 0
-51 -49 108 0
52 49 208 0
52 -49 -208 0
-52 49 -208 0
-52 -49 208 0
53 49 223 0
53 -49 -223 0
-53 49 -223 0
-53 -49 223 0
54 49 289 0
54 -49 -289 0
-54 49 -289 0
-54 -49 289 0
55 49 297 0
55 -49 -297 0
-55 49 -297 0
-55 -49 297 0
56 49 344 0
56 -49 -344 0
-56 49 -344 0
-56 -49 344 0
57 49 418 0
57 -49 -418 0
-57 49 -418 0
-57 -49 418 0
58 49 421 0
58 -49 -421 0
-58 49 -421 0
-58 -49 421 0
59 49 433 0
59 -49 -433 0
-59 49 -433 0
-59 -49 433 0
61 60 149 0
61 -60 -149 0
-61 60 -149 0
-61 -60 149 0
62 60 208 0
62 -60 -208 0
-62 60 -208 0
-62 -60 208 0
63 60 231 0
63 -60 -231 0
-63 60 -231 0
-63 -60 231 0
64 60 261 0
64 -60 -261 0
-64 60 -261 0
-64 -60 261 0
65 60 342 0
65 -60 -342 0
-65 60 -342 0
-65 -60 342 0
66 60 377 0
66 -60 -377 0
-66 60 -377 0
-66 -60 377 0
67 60 384 0
67 -60 -384 0
-67 60 -384 0
-67 -60 384 0
68 60 388 0
68 -60 -388 0
-68 60 -388 0
-68 -60 388 0
69 60 418 0
69 -60 -418 0
-69 60 -418 0
-69 -60 418 0
71 70 171 0
71 -70 -171 0
-71 70 -171 0
-71 -70 171 0
72 70 261 0
72 -70 -261 0
-72 70 -261 0
-72 -70 261 0
73 70 303 0
73 -70 -303 0
-73 70 -303 0
-73 -70 303 0
74 70 349 0
74 -70 -349 0
-74 70 -349 0
-74 -70 349 0
75 70 394 0
75 -70 -394 0
-75 70 -394 0
-75 -70 394 0
76 70 406 0
76 -70 -406 0
-76 70 -406 0
-76 -70 406 0
77 70 427 0
77 -70 -427 0
-77 70 -427 0
-77 -70 427 0
78 70 433 0
78 -70 -433 0
-78 70 -433 0
-78 -70 433 0
80 79 171 0
80 -79 -171 0
-80 79 -171 0
-80 -79 171 0
81 79 223 0
81 -79 -223 0
-81 79 -223 0
-81 -79 223 0
82 79 231 0
82 -79 -231 0
-82 79 -231 0
-82 -79 231 0
83 79 272 0
83 -79 -272 0
-83 79 -272 0
-83 -79 272 0
84 79 349 0
84 -79 -349 0
-84 79 -349 0
-84 -79 349 0
85 79 359 0
85 -79 -359 0
-85 79 -359 0
-85 -79 359 0
86 79 371 0
86 -79 -371 0
-86 79 -371 0
-86 -79 371 0
87 79 384 0
87 -79 -384 0
-87 79 -384 0
-87 -79 384 0
88 79 394 0
88 -79 -394 0
-88 79 -394 0
-88 -79 394 0
89 79 400 0
89 -79 -400 0
-89 79 -400 0
-89 -79 400 0
90 79 439 0
90 -79 -439 0
-90 79 -439 0
-90 -79 439 0
92 91 108 0
92 -91 -108 0
-92 91 -108 0
-92 -91 108 0
93 91 125 0
93 -91 -125 0
-93 91 -125 0
-93 -91 125 0
94 91 135 0
94 -91 -135 0
-94 91 -135 0
-94 -91 135 0
95 91 200 0
95 -91 -200 0
-95 91 -200 0
-95 -91 200 0
96 91 231 0
96 -91 -231 0
-96 91 -231 0
-96 -91 231 0
97 91 249 0
97 -91 -249 0
-97 91 -249 0
-97 -91 249 0
98 91 281 0
98 -91 -281 0
-98 91 -281 0
-98 -91 281 0
99 91 315 0
99 -91 -315 0
-99 91 -315 0
-99 -91 315 0
100 91 371 0
100 -91 -371 0
-100 91 -371 0
-100 -91 371 0
101 91 377 0
101 -91 -377 0
-101 91 -377 0
-101 -91 377 0
102 91 394 0
102 -91 -394 0
-102 91 -394 0
-102 -91 394 0
103 91 408 0
103 -91 -408 0
-103 91 -408 0
-103 -91 408 0
104 91 411 0
104 -91 -411 0
-104 91 -411 0
-104 -91 411 0
105 91 421 0
105 -91 -421 0
-105 91 -421 0
-105 -91 421 0
106 91 432 0
106 -91 -432 0
-106 91 -432 0
-106 -91 432 0
107 91 438 0
107 -91 -438 0
-107 91 -438 0
-107 -91 438 0
109 108 181 0
109 -108 -181 0
-109 108 -181 0
-109 -108 181 0
110 108 281 0
110 -108 -281 0
-110 108 -281 0
-110 -108 281 0
111 108 322 0
111 -108 -322 0
-111 108 -322 0
-111 -108 322 0
112 108 331 0
112 -108 -331 0
-112 108 -331 0
-112 -108 331 0
113 108 344 0
113 -108 -344 0
-113 108 -344 0
-113 -108 344 0
114 108 355 0
114 -108 -355 0
-114 108 -355 0
-114 -108 355 0
115 108 377 0
115 -108 -377 0
-115 108 -377 0
-115 -108 377 0
116 108 441 0
116 -108 -441 0
-116 108 -441 0
-116 -108 441 0
118 117 171 0
118 -117 -171 0
-118 117 -171 0
-118 -117 171 0
119 117 231 0
119 -117 -231 0
-119 117 -231 0
-119 -117 231 0
120 117 336 0
120 -117 -336 0
-120 117 -336 0
-120 -117 336 0
121 117 396 0
121 -117 -396 0
-121 117 -396 0
-121 -117 396 0
122 117 408 0
122 -117 -408 0
-122 117 -408 0
-122 -117 408 0
123 117 432 0
123 -117 -432 0
-123 117 -432 0
-123 -117 432 0
124 117 441 0
124 -117 -441 0
-124 117 -441 0
-124 -117 441 0
126 125 135 0
126 -125 -135 0
-126 125 -135 0
-126 -125 135 0
127 125 223 0
127 -125 -223 0
-127 125 -223 0
-127 -125 223 0
128 125 265 0
128 -125 -265 0
-128 125 -265 0
-128 -125 265 0
129 125 344 0
129 -125 -344 0
-129 125 -344 0
-129 -125 344 0
130 125 394 0
130 -125 -394 0
-130 125 -394 0
-130 -125 394 0
131 125 408 0
131 -125 -408 0
-131 125 -408 0
-131 -125 408 0
132 125 421 0
132 -125 -421 0
-132 125 -421 0
-132 -125 421 0
133 125 424 0
133 -125 -424 0
-133 125 -424 0
-133 -125 424 0
134 125 441 0
134 -125 -441 0
-134 125 -441 0
-134 -125 441 0
136 135 231 0
136 -135 -231 0
-136 135 -231 0
-136 -135 231 0
137 135 322 0
137 -135 -322 0
-137 135 -322 0
-137 -135 322 0
138 135 371 0
138 -135 -371 0
-138 135 -371 0
-138 -135 371 0
139 135 377 0
139 -135 -377 0
-139 135 -377 0
-139 -135 377 0
140 135 408 0
140 -135 -408 0
-140 135 -408 0
-140 -135 408 0
141 135 415 0
141 -135 -415 0
-141 135 -415 0
-141 -135 415 0
142 135 427 0
142 -135 -427 0
-142 135 -427 0
-142 -135 427 0
143 135 441 0
143 -135 -441 0
-143 135 -441 0
-143 -135 441 0
145 144 261 0
145 -144 -261 0
-145 144 -261 0
-145 -144 261 0
146 144 315 0
146 -144 -315 0
-146 144 -315 0
-146 -144 315 0
147 144 322 0
147 -144 -322 0
-147 144 -322 0
-147 -144 322 0
148 144 394 0
148 -144 -394 0
-148 144 -394 0
-148 -144 394 0
150 149 181 0
150 -149 -181 0
-150 149 -181 0
-150 -149 181 0
151 149 194 0
151 -149 -194 0
-151 149 -194 0
-151 -149 194 0
152 149 200 0
152 -149 -200 0
-152 149 -200 0
-152 -149 200 0
153 149 208 0
153 -149 -208 0
-153 149 -208 0
-153 -149 208 0
154 149 231 0
154 -149 -231 0
-154 149 -231 0
-154 -149 231 0
155 149 249 0
155 -149 -249 0
-155 149 -249 0
-155 -149 249 0
156 149 261 0
156 -149 -261 0
-156 149 -261 0
-156 -149 261 0
157 149 289 0
157 -149 -289 0
-157 149 -289 0
-157 -149 289 0
158 149 336 0
158 -149 -336 0
-158 149 -336 0
-158 -149 336 0
159 149 377 0
159 -149 -377 0
-159 149 -377 0
-159 -149 377 0
160 149 400 0
160 -149 -400 0
-160 149 -400 0
-160 -149 400 0
161 149 415 0
161 -149 -415 0
-161 149 -415 0
-161 -149 415 0
162 149 433 0
162 -149 -433 0
-162 149 -433 0
-162 -149 433 0
164 163 289 0
164 -163 -289 0
-164 163 -289 0
-164 -163 289 0
165 163 311 0
165 -163 -311 0
-165 163 -311 0
-165 -163 311 0
166 163 365 0
166 -163 -365 0
-166 163 -365 0
-166 -163 365 0
167 163 377 0
167 -163 -377 0
-167 163 -377 0
-167 -163 377 0
168 163 384 0
168 -163 -384 0
-168 163 -384 0
-168 -163 384 0
169 163 408 0
169 -163 -408 0
-169 163 -408 0
-169 -163 408 0
170 163 418 0
170 -163 -418 0
-170 163 -418 0
-170 -163 418 0
172 171 181 0
172 -171 -181 0
-172 171 -181 0
-172 -171 181 0
173 171 223 0
173 -171 -223 0
-173 171 -223 0
-173 -171 223 0
174 171 261 0
174 -171 -261 0
-174 171 -261 0
-174 -171 261 0
175 171 322 0
175 -171 -322 0
-175 171 -322 0
-175 -171 322 0
176 171 344 0
176 -171 -344 0
-176 171 -344 0
-176 -171 344 0
177 171 377 0
177 -171 -377 0
-177 171 -377 0
-177 -171 377 0
178 171 396 0
178 -171 -396 0
-178 171 -396 0
-178 -171 396 0
179 171 424 0
179 -171 -424 0
-179 171 -424 0
-179 -171 424 0
180 171 433 0
180 -171 -433 0
-180 171 -433 0
-180 -171 433 0
182 181 218 0
182 -181 -218 0
-182 181 -218 0
-182 -181 218 0
183 181 249 0
183 -181 -249 0
-183 181 -249 0
-183 -181 249 0
184 181 336 0
184 -181 -336 0
-184 181 -336 0
-184 -181 336 0
185 181 349 0
185 -181 -349 0
-185 181 -349 0
-185 -181 349 0
186 181 377 0
186 -181 -377 0
-186 181 -377 0
-186 -181 377 0
187 181 388 0
187 -181 -388 0
-187 181 -388 0
-187 -181 388 0
188 181 400 0
188 -181 -400 0
-188 181 -400 0
-188 -181 400 0
189 181 406 0
189 -181 -406 0
-189 181 -406 0
-189 -181 406 0
190 181 408 0
190 -181 -408 0
-190 181 -408 0
-190 -181 408 0
191 181 409 0
191 -181 -409 0
-191 181 -409 0
-191 -181 409 0
192 181 418 0
192 -181 -418 0
-192 181 -418 0
-192 -181 418 0
193 181 435 0
193 -181 -435 0
-193 181 -435 0
-193 -181 435 0
195 194 315 0
195 -194 -315 0
-195 194 -315 0
-195 -194 315 0
196 194 322 0
196 -194 -322 0
-196 194 -322 0
-196 -194 322 0
197 194 365 0
197 -194 -365 0
-197 194 -365 0
-197 -194 365 0
198 194 384 0
198 -194 -384 0
-198 194 -384 0
-198 -194 384 0
199 194 396 0
199 -194 -396 0
-199 194 -396 0
-199 -194 396 0
201 200 276 0
201 -200 -276 0
-201 200 -276 0
-201 -200 276 0
202 200 281 0
202 -200 -281 0
-202 200 -281 0
-202 -200 281 0
203 200 315 0
203 -200 -315 0
-203 200 -315 0
-203 -200 315 0
204 200 377 0
204 -200 -377 0
-204 200 -377 0
-204 -200 377 0
205 200 435 0
205 -200 -435 0
-205 200 -435 0
-205 -200 435 0
206 200 437 0
206 -200 -437 0
-206 200 -437 0
-206 -200 437 0
207 200 441 0
207 -200 -441 0
-207 200 -441 0
-207 -200 441 0
209 208 272 0
209 -208 -272 0
-209 208 -272 0
-209 -208 272 0
210 208 355 0
210 -208 -355 0
-210 208 -355 0
-210 -208 355 0
211 208 365 0
211 -208 -365 0
-211 208 -365 0
-211 -208 365 0
212 208 371 0
212 -208 -371 0
-212 208 -371 0
-212 -208 371 0
213 208 377 0
213 -208 -377 0
-213 208 -377 0
-213 -208 377 0
214 208 394 0
214 -208 -394 0
-214 208 -394 0
-214 -208 394 0
215 208 406 0
215 -208 -406 0
-215 208 -406 0
-215 -208 406 0
216 208 409 0
216 -208 -409 0
-216 208 -409 0
-216 -208 409 0
217 208 418 0
217 -208 -418 0
-217 208 -418 0
-217 -208 418 0
219 218 249 0
219 -218 -249 0
-219 218 -249 0
-219 -218 249 0
220 218 311 0
220 -218 -311 0
-220 218 -311 0
-220 -218 311 0
221 218 322 0
221 -218 -322 0
-221 218 -322 0
-221 -218 322 0
222 218 411 0
222 -218 -411 0
-222 218 -411 0
-222 -218 411 0
224 223 281 0
224 -223 -281 0
-224 223 -281 0
-224 -223 281 0
225 223 289 0
225 -223 -289 0
-225 223 -289 0
-225 -223 289 0
226 223 297 0
226 -223 -297 0
-226 223 -297 0
-226 -223 297 0
227 223 303 0
227 -223 -303 0
-227 223 -303 0
-227 -223 303 0
228 223 311 0
228 -223 -311 0
-228 223 -311 0
-228 -223 311 0
229 223 409 0
229 -223 -409 0
-229 223 -409 0
-229 -223 409 0
230 223 424 0
230 -223 -424 0
-230 223 -424 0
-230 -223 424 0
232 231 311 0
232 -231 -311 0
-232 231 -311 0
-232 -231 311 0
233 231 365 0
233 -231 -365 0
-233 231 -365 0
-233 -231 365 0
234 231 384 0
234 -231 -384 0
-234 231 -384 0
-234 -231 384 0
236 235 297 0
236 -235 -297 0
-236 235 -297 0
-236 -235 297 0
237 235 336 0
237 -235 -336 0
-237 235 -336 0
-237 -235 336 0
238 235 384 0
238 -235 -384 0
-238 235 -384 0
-238 -235 384 0
239 235 408 0
239 -235 -408 0
-239 235 -408 0
-239 -235 408 0
240 235 411 0
240 -235 -411 0
-240 235 -411 0
-240 -235 411 0
241 235 415 0
241 -235 -415 0
-241 235 -415 0
-241 -235 415 0
243 242 281 0
243 -242 -281 0
-243 242 -281 0
-243 -242 281 0
244 242 303 0
244 -242 -303 0
-244 242 -303 0
-244 -242 303 0
245 242 377 0
245 -242 -377 0
-245 242 -377 0
-245 -242 377 0
246 242 384 0
246 -242 -384 0
-246 242 -384 0
-246 -242 384 0
247 242 409 0
247 -242 -409 0
-247 242 -409 0
-247 -242 409 0
248 242 430 0
248 -242 -430 0
-248 242 -430 0
-248 -242 430 0
250 249 261 0
250 -249 -261 0
-250 249 -261 0
-250 -249 261 0
251 249 289 0
251 -249 -289 0
-251 249 -289 0
-251 -249 289 0
252 249 315 0
252 -249 -315 0
-252 249 -315 0
-252 -249 315 0
253 249 331 0
253 -249 -331 0
-253 249 -331 0
-253 -249 331 0
254 249 342 0
254 -249 -342 0
-254 249 -342 0
-254 -249 342 0
255 249 355 0
255 -249 -355 0
-255 249 -355 0
-255 -249 355 0
256 249 365 0
256 -249 -365 0
-256 249 -365 0
-256 -249 365 0
257 249 408 0
257 -249 -408 0
-257 249 -408 0
-257 -249 408 0
258 249 409 0
258 -249 -409 0
-258 249 -409 0
-258 -249 409 0
259 249 439 0
259 -249 -439 0
-259 249 -439 0
-259 -249 439 0
260 249 441 0
260 -249 -441 0
-260 249 -441 0
-260 -249 441 0
262 261 311 0
262 -261 -311 0
-262 261 -311 0
-262 -261 311 0
263 261 400 0
263 -261 -400 0
-263 261 -400 0
-263 -261 400 0
264 261 418 0
264 -261 -418 0
-264 261 -418 0
-264 -261 418 0
266 265 281 0
266 -265 -281 0
-266 265 -281 0
-266 -265 281 0
267 265 311 0
267 -265 -311 0
-267 265 -311 0
-267 -265 311 0
268 265 359 0
268 -265 -359 0
-268 265 -359 0
-268 -265 359 0
269 265 411 0
269 -265 -411 0
-269 265 -411 0
-269 -265 411 0
270 265 427 0
270 -265 -427 0
-270 265 -427 0
-270 -265 427 0
271 265 439 0
271 -265 -439 0
-271 265 -439 0
-271 -265 439 0
273 272 342 0
273 -272 -342 0
-273 272 -342 0
-273 -272 342 0
274 272 344 0
274 -272 -344 0
-274 272 -344 0
-274 -272 344 0
275 272 433 0
275 -272 -433 0
-275 272 -433 0
-275 -272 433 0
277 276 311 0
277 -276 -311 0
-277 276 -311 0
-277 -276 311 0
278 276 349 0
278 -276 -349 0
-278 276 -349 0
-278 -276 349 0
279 276 384 0
279 -276 -384 0
-279 276 -384 0
-279 -276 384 0
280 276 427 0
280 -276 -427 0
-280 276 -427 0
-280 -276 427 0
282 281 289 0
282 -281 -289 0
-282 281 -289 0
-282 -281 289 0
283 281 315 0
283 -281 -315 0
-283 281 -315 0
-283 -281 315 0
284 281 322 0
284 -281 -322 0
-284 281 -322 0
-284 -281 322 0
285 281 365 0
285 -281 -365 0
-285 281 -365 0
-285 -281 365 0
286 281 377 0
286 -281 -377 0
-286 281 -377 0
-286 -281 377 0
287 281 394 0
287 -281 -394 0
-287 281 -394 0
-287 -281 394 0
288 281 437 0
288 -281 -437 0
-288 281 -437 0
-288 -281 437 0
290 289 303 0
290 -289 -303 0
-290 289 -303 0
-290 -289 303 0
291 289 311 0
291 -289 -311 0
-291 289 -311 0
-291 -289 311 0
292 289 355 0
292 -289 -355 0
-292 289 -355 0
-292 -289 355 0
293 289 415 0
293 -289 -415 0
-293 289 -415 0
-293 -289 415 0
294 289 418 0
294 -289 -418 0
-294 289 -418 0
-294 -289 418 0
295 289 432 0
295 -289 -432 0
-295 289 -432 0
-295 -289 432 0
296 289 441 0
296 -289 -441 0
-296 289 -441 0
-296 -289 441 0
298 297 418 0
298 -297 -418 0
-298 297 -418 0
-298 -297 418 0
299 297 427 0
299 -297 -427 0
-299 297 -427 0
-299 -297 427 0
300 297 430 0
300 -297 -430 0
-300 297 -430 0
-300 -297 430 0
301 297 432 0
301 -297 -432 0
-301 297 -432 0
-301 -297 432 0
302 297 438 0
302 -297 -438 0
-302 297 -438 0
-302 -297 438 0
304 303 331 0
304 -303 -331 0
-304 303 -331 0
-304 -303 331 0
305 303 336 0
305 -303 -336 0
-305 303 -336 0
-305 -303 336 0
306 303 355 0
306 -303 -355 0
-306 303 -355 0
-306 -303 355 0
307 303 400 0
307 -303 -400 0
-307 303 -400 0
-307 -303 400 0
308 303 406 0
308 -303 -406 0
-308 303 -406 0
-308 -303 406 0
309 303 418 0
309 -303 -418 0
-309 303 -418 0
-309 -303 418 0
310 303 432 0
310 -303 -432 0
-310 303 -432 0
-310 -303 432 0
312 311 409 0
312 -311 -409 0
-312 311 -409 0
-312 -311 409 0
313 311 430 0
313 -311 -430 0
-313 311 -430 0
-313 -311 430 0
314 311 433 0
314 -311 -433 0
-314 311 -433 0
-314 -311 433 0
316 315 342 0
316 -315 -342 0
-316 315 -342 0
-316 -315 342 0
317 315 355 0
317 -315 -355 0
-317 315 -355 0
-317 -315 355 0
318 315 406 0
318 -315 -406 0
-318 315 -406 0
-318 -315 406 0
319 315 411 0
319 -315 -411 0
-319 315 -411 0
-319 -315 411 0
320 315 432 0
320 -315 -432 0
-320 315 -432 0
-320 -315 432 0
321 315 439 0
321 -315 -439 0
-321 315 -439 0
-321 -315 439 0
323 322 355 0
323 -322 -355 0
-323 322 -355 0
-323 -322 355 0
324 322 359 0
324 -322 -359 0
-324 322 -359 0
-324 -322 359 0
325 322 408 0
325 -322 -408 0
-325 322 -408 0
-325 -322 408 0
326 322 409 0
326 -322 -409 0
-326 322 -409 0
-326 -322 409 0
327 322 415 0
327 -322 -415 0
-327 322 -415 0
-327 -322 415 0
328 322 433 0
328 -322 -433 0
-328 322 -433 0
-328 -322 433 0
329 322 437 0
329 -322 -437 0
-329 322 -437 0
-329 -322 437 0
330 322 441 0
330 -322 -441 0
-330 322 -441 0
-330 -322 441 0
332 331 394 0
332 -331 -394 0
-332 331 -394 0
-332 -331 394 0
333 331 400 0
333 -331 -400 0
-333 331 -400 0
-333 -331 400 0
334 331 418 0
334 -331 -418 0
-334 331 -418 0
-334 -331 418 0
335 331 424 0
335 -331 -424 0
-335 331 -424 0
-335 -331 424 0
337 336 371 0
337 -336 -371 0
-337 336 -371 0
-337 -336 371 0
338 336 400 0
338 -336 -400 0
-338 336 -400 0
-338 -336 400 0
339 336 418 0
339 -336 -418 0
-339 336 -418 0
-339 -336 418 0
340 336 424 0
340 -336 -424 0
-340 336 -424 0
-340 -336 424 0
341 336 439 0
341 -336 -439 0
-341 336 -439 0
-341 -336 439 0
343 342 394 0
343 -342 -394 0
-343 342 -394 0
-343 -342 394 0
345 344 359 0
345 -344 -359 0
-345 344 -359 0
-345 -344 359 0
346 344 415 0
346 -344 -415 0
-346 344 -415 0
-346 -344 415 0
347 344 421 0
347 -344 -421 0
-347 344 -421 0
-347 -344 421 0
348 344 433 0
348 -344 -433 0
-348 344 -433 0
-348 -344 433 0
350 349 371 0
350 -349 -371 0
-350 349 -371 0
-350 -349 371 0
351 349 384 0
351 -349 -384 0
-351 349 -384 0
-351 -349 384 0
352 349 394 0
352 -349 -394 0
-352 349 -394 0
-352 -349 394 0
353 349 408 0
353 -349 -408 0
-353 349 -408 0
-353 -349 408 0
354 349 438 0
354 -349 -438 0
-354 349 -438 0
-354 -349 438 0
356 355 359 0
356 -355 -359 0
-356 355 -359 0
-356 -355 359 0
357 355 400 0
357 -355 -400 0
-357 355 -400 0
-357 -355 400 0
358 355 437 0
358 -355 -437 0
-358 355 -437 0
-358 -355 437 0
360 359 365 0
360 -359 -365 0
-360 359 -365 0
-360 -359 365 0
361 359 377 0
361 -359 -377 0
-361 359 -377 0
-361 -359 377 0
362 359 424 0
362 -359 -424 0
-362 359 -424 0
-362 -359 424 0
363 359 427 0
363 -359 -427 0
-363 359 -427 0
-363 -359 427 0
364 359 437 0
364 -359 -437 0
-364 359 -437 0
-364 -359 437 0
366 365 377 0
366 -365 -377 0
-366 365 -377 0
-366 -365 377 0
367 365 384 0
367 -365 -384 0
-367 365 -384 0
-367 -365 384 0
368 365 408 0
368 -365 -408 0
-368 365 -408 0
-368 -365 408 0
369 365 418 0
369 -365 -418 0
-369 365 -418 0
-369 -365 418 0
370 365 439 0
370 -365 -439 0
-370 365 -439 0
-370 -365 439 0
372 371 384 0
372 -371 -384 0
-372 371 -384 0
-372 -371 384 0
373 371 415 0
373 -371 -415 0
-373 371 -415 0
-373 -371 415 0
374 371 418 0
374 -371 -418 0
-374 371 -418 0
-374 -371 418 0
375 371 421 0
375 -371 -421 0
-375 371 -421 0
-375 -371 421 0
376 371 435 0
376 -371 -435 0
-376 371 -435 0
-376 -371 435 0
378 377 384 0
378 -377 -384 0
-378 377 -384 0
-378 -377 384 0
379 377 411 0
379 -377 -411 0
-379 377 -411 0
-379 -377 411 0
380 377 415 0
380 -377 -415 0
-380 377 -415 0
-380 -377 415 0
381 377 418 0
381 -377 -418 0
-381 377 -418 0
-381 -377 418 0
382 377 432 0
382 -377 -432 0
-382 377 -432 0
-382 -377 432 0
383 377 439 0
383 -377 -439 0
-383 377 -439 0
-383 -377 439 0
385 384 424 0
385 -384 -424 0
-385 384 -424 0
-385 -384 424 0
386 384 433 0
386 -384 -433 0
-386 384 -433 0
-386 -384 433 0
387 384 439 0
387 -384 -439 0
-387 384 -439 0
-387 -384 439 0
389 388 409 0
389 -388 -409 0
-389 388 -409 0
-389 -388 409 0
390 388 427 0
390 -388 -427 0
-390 388 -427 0
-390 -388 427 0
391 388 433 0
391 -388 -433 0
-391 388 -433 0
-391 -388 433 0
392 388 438 0
392 -388 -438 0
-392 388 -438 0
-392 -388 438 0
393 388 441 0
393 -388 -441 0
-393 388 -441 0
-393 -388 441 0
395 394 433 0
395 -394 -433 0
-395 394 -433 0
-395 -394 433 0
397 396 400 0
397 -396 -400 0
-397 396 -400 0
-397 -396 400 0
398 396 432 0
398 -396 -432 0
-398 396 -432 0
-398 -396 432 0
399 396 437 0
399 -396 -437 0
-399 396 -437 0
-399 -396 437 0
401 400 406 0
401 -400 -406 0
-401 400 -406 0
-401 -400 406 0
402 400 418 0
402 -400 -418 0
-402 400 -418 0
-402 -400 418 0
403 400 427 0
403 -400 -427 0
-403 400 -427 0
-403 -400 427 0
404 400 432 0
404 -400 -432 0
-404 400 -432 0
-404 -400 432 0
405 400 437 0
405 -400 -437 0
-405 400 -437 0
-405 -400 437 0
407 406 424 0
407 -406 -424 0
-407 406 -424 0
-407 -406 424 0
410 409 433 0
410 -409 -433 0
-410 409 -433 0
-410 -409 433 0
412 411 418 0
412 -411 -418 0
-412 411 -418 0
-412 -411 418 0
413 411 424 0
413 -411 -424 0
-413 411 -424 0
-413 -411 424 0
414 411 438 0
414 -411 -438 0
-414 411 -438 0
-414 -411 438 0
416 415 424 0
416 -415 -424 0
-416 415 -424 0
-416 -415 424 0
417 415 439 0
417 -415 -439 0
-417 415 -439 0
-417 -415 439 0
419 418 433 0
419 -418 -433 0
-419 418 -433 0
-419 -418 433 0
420 418 438 0
420 -418 -438 0
-420 418 -438 0
-420 -418 438 0
422 421 432 0
422 -421 -432 0
-422 421 -432 0
-422 -421 432 0
423 421 441 0
423 -421 -441 0
-423 421 -441 0
-423 -421 441 0
425 424 430 0
425 -424 -430 0
-425 424 -430 0
-425 -424 430 0
426 424 435 0
426 -424 -435 0
-426 424 -435 0
-426 -424 435 0
428 427 430 0
428 -427 -430 0
-428 427 -430 0
-428 -427 430 0
429 427 435 0
429 -427 -435 0
-429 427 -435 0
-429 -427 435 0
431 430 433 0
431 -430 -433 0
-431 430 -433 0
-431 -430 433 0
434 433 441 0
434 -433 -441 0
-434 433 -441 0
-434 -433 441 0
436 435 439 0
436 -435 -439 0
-436 435 -439 0
-436 -435 439 0
440 439 441 0
440 -439 -441 0
-440 439 -441 0
-440 -439 441 0
